p wcnf 132 158 159 
1 78 1 0 
1 -21 -6 0 
1 115 58 0 
1 81 73 0 
1 34 -65 0 
1 44 45 0 
1 -35 19 0 
1 121 102 0 
1 59 -42 0 
1 21 -115 0 
1 -72 122 0 
1 -90 56 0 
1 -10 -54 0 
1 -87 -130 0 
1 -80 -110 0 
1 61 -100 0 
1 73 -86 0 
1 45 -18 0 
1 87 -27 0 
1 -110 -50 0 
1 -1 -39 0 
1 -44 49 0 
1 -14 108 0 
1 13 -94 0 
1 124 -103 0 
1 56 48 0 
1 50 131 0 
1 81 62 0 
1 -9 57 0 
1 121 -75 0 
1 -22 113 0 
1 -81 -36 0 
1 2 -93 0 
1 76 -44 0 
1 60 3 0 
1 24 -128 0 
1 -31 112 0 
1 76 36 0 
1 129 -29 0 
1 111 -10 0 
1 -62 73 0 
1 -26 80 0 
1 -79 -51 0 
1 17 129 0 
1 -31 73 0 
1 98 118 0 
1 -53 -91 0 
1 -32 -123 0 
1 -88 -41 0 
1 102 -58 0 
1 -68 31 0 
1 -7 124 0 
1 99 -132 0 
1 -82 -9 0 
1 -104 -20 0 
1 -47 -43 0 
1 -48 120 0 
1 57 -96 0 
1 28 123 0 
1 -59 -62 0 
1 58 3 0 
1 -4 -6 0 
1 58 -61 0 
1 2 -9 0 
1 8 54 0 
1 -66 112 0 
1 -130 2 0 
1 -27 -111 0 
1 67 -99 0 
1 132 121 0 
1 81 -114 0 
1 -19 17 0 
1 -71 -46 0 
1 24 43 0 
1 82 34 0 
1 -112 22 0 
1 36 43 0 
1 -47 -117 0 
1 -3 63 0 
1 26 -10 0 
1 -77 -121 0 
1 -124 24 0 
1 38 63 0 
1 14 119 0 
1 36 9 0 
1 117 -48 0 
1 -23 13 0 
1 -101 -74 0 
1 60 9 0 
1 49 82 0 
1 100 -75 0 
1 107 -28 0 
1 88 -104 0 
1 -78 71 0 
1 -29 119 0 
1 3 54 0 
1 124 62 0 
1 86 -71 0 
1 41 -56 0 
1 43 19 0 
1 -107 59 0 
1 67 -41 0 
1 -107 -70 0 
1 35 121 0 
1 -110 117 0 
1 18 74 0 
1 -74 -87 0 
1 66 -20 0 
1 91 123 0 
1 -94 99 0 
1 20 -78 0 
1 -42 67 0 
1 -76 -108 0 
1 -36 -9 0 
1 105 -16 0 
1 132 -115 0 
1 -51 -75 0 
1 79 30 0 
1 -102 -129 0 
1 -102 -124 0 
1 -96 -128 0 
1 -25 -54 0 
1 10 87 0 
1 -78 123 0 
1 -59 -50 0 
1 110 -93 0 
1 -37 -39 0 
1 -63 94 0 
1 -70 -112 0 
1 -2 -114 0 
1 -110 83 0 
1 132 -30 0 
1 -62 -76 0 
1 -95 -53 0 
1 90 8 0 
1 57 -39 0 
1 -15 21 0 
1 107 44 0 
1 94 117 0 
1 -38 -91 0 
1 -93 -39 0 
1 37 114 0 
1 -79 1 0 
1 -94 -41 0 
1 -46 -35 0 
1 106 -26 0 
1 28 57 0 
1 -117 -125 0 
1 48 -98 0 
1 -79 60 0 
1 -96 -101 0 
1 -108 99 0 
1 -3 -47 0 
1 -48 -36 0 
1 -110 53 0 
1 -42 -89 0 
1 84 97 0 
1 73 124 0 
